5
599 558 813  162
795 927 513  987
746 456 847  869
560 853 677  259
997 757 484  126
15
364 78 175  75 269
661 273 632  263 55
250 657 703  264 31
648 438 137  64 83
627 676 425  26 212
344 153 472  129 109
355 57 190  58 221
161 213 199  54 107
35 763 726  272 201
484 343 694  56 212
390 714 355  122 163
147 123 715  256 137
500 44 670  28 112
338 472 22  139 50
546 406 615  178 151
